CapLotSizing_PM/src/Instancias/TCHSLT/25i12p2m/NBB07.OUT
 CG ITER, OVMR, OVMRUB =           1  137993.8281250  137993.8281250
 CG ITER, OVMR, OVMRUB =           2  130335.6406250  130335.6328125
 CG ITER, OVMR, OVMRUB =           3  130335.6250000  130335.6328125
 CG ITER, OVMR, OVMRUB =           4  118531.8593750  118541.2968750
 CG ITER, OVMR, OVMRUB =           5  106209.2343750  118541.2968750
 CG ITER, OVMR, OVMRUB =           6  105268.1562500  118541.2968750
 CG ITER, OVMR, OVMRUB =           7  105059.5546875  118541.2968750
 CG ITER, OVMR, OVMRUB =           8  103972.3828125  118541.2968750
 CG ITER, OVMR, OVMRUB =           9  103389.5937500  118541.2968750
 CG ITER, OVMR, OVMRUB =          10  102815.7343750  118541.2968750
 CG ITER, OVMR, OVMRUB =          11  102306.0781250  118541.2968750
 CG ITER, OVMR, OVMRUB =          12  101940.5000000  118541.2968750
 CG ITER, OVMR, OVMRUB =          13  101483.6953125  118541.2968750
 CG ITER, OVMR, OVMRUB =          14  101053.6171875  118541.2968750
 CG ITER, OVMR, OVMRUB =          15  100804.5000000  118541.2968750
 CG ITER, OVMR, OVMRUB =          16  100526.1796875  118541.2968750
 CG ITER, OVMR, OVMRUB =          17  100276.8906250  118541.2968750
 CG ITER, OVMR, OVMRUB =          18   99983.4765625  118541.2968750
 CG ITER, OVMR, OVMRUB =          19   99764.1406250  118541.2968750
 CG ITER, OVMR, OVMRUB =          20   99450.1640625  118541.2968750
 CG ITER, OVMR, OVMRUB =          21   99224.9453125  118541.2968750
 CG ITER, OVMR, OVMRUB =          22   99037.2421875  118541.2968750
 CG ITER, OVMR, OVMRUB =          23   98778.3984375  118541.2968750
 CG ITER, OVMR, OVMRUB =          24   98709.6796875  118541.2968750
 CG ITER, OVMR, OVMRUB =          25   98475.4921875  118541.2968750
 CG ITER, OVMR, OVMRUB =          26   98369.6015625  118541.2968750
 CG ITER, OVMR, OVMRUB =          27   98267.7578125  118541.2968750
 CG ITER, OVMR, OVMRUB =          28   98137.8984375  118541.2968750
 CG ITER, OVMR, OVMRUB =          29   98075.5234375  118541.2968750
 CG ITER, OVMR, OVMRUB =          30   97988.3125000  118541.2968750
 CG ITER, OVMR, OVMRUB =          31   97890.9609375  118541.2968750
 CG ITER, OVMR, OVMRUB =          32   97830.5156250  118541.2968750
 CG ITER, OVMR, OVMRUB =          33   97777.2812500  118541.2968750
 CG ITER, OVMR, OVMRUB =          34   97661.9687500  118541.2968750
 CG ITER, OVMR, OVMRUB =          35   97570.4531250  118541.2968750
 CG ITER, OVMR, OVMRUB =          36   97525.8671875  118541.2968750
 CG ITER, OVMR, OVMRUB =          37   97453.3125000  118541.2968750
 CG ITER, OVMR, OVMRUB =          38   97346.6328125  118541.2968750
 CG ITER, OVMR, OVMRUB =          39   97330.2890625  118541.2968750
 CG ITER, OVMR, OVMRUB =          40   97185.4218750  118541.2968750
 CG ITER, OVMR, OVMRUB =          41   97125.8906250  118541.2968750
 CG ITER, OVMR, OVMRUB =          42   97032.0703125  118541.2968750
 CG ITER, OVMR, OVMRUB =          43   96964.8984375  118541.2968750
 CG ITER, OVMR, OVMRUB =          44   96905.7265625  118541.2968750
 CG ITER, OVMR, OVMRUB =          45   96858.9375000  118541.2968750
 CG ITER, OVMR, OVMRUB =          46   96799.1015625  118541.2968750
 CG ITER, OVMR, OVMRUB =          47   96743.8750000  118541.2968750
 CG ITER, OVMR, OVMRUB =          48   96737.9765625  118541.2968750
 CG ITER, OVMR, OVMRUB =          49   96732.2578125  118541.2968750
 CG ITER, OVMR, OVMRUB =          50   96710.0312500  118541.2968750
 CG ITER, OVMR, OVMRUB =          51   96682.0234375  118541.2968750
 CG ITER, OVMR, OVMRUB =          52   96673.7500000  118541.2968750
 CG ITER, OVMR, OVMRUB =          53   96641.4765625  118541.2968750
 CG ITER, OVMR, OVMRUB =          54   96633.4296875  118541.2968750
 CG ITER, OVMR, OVMRUB =          55   96596.5000000  118541.2968750
 CG ITER, OVMR, OVMRUB =          56   96557.9609375  118541.2968750
 CG ITER, OVMR, OVMRUB =          57   96522.6015625  118541.2968750
 CG ITER, OVMR, OVMRUB =          58   96500.4140625  117774.1171875
 CG ITER, OVMR, OVMRUB =          59   96488.9062500  117774.1171875
 CG ITER, OVMR, OVMRUB =          60   96448.5234375  117774.1171875
 CG ITER, OVMR, OVMRUB =          61   96442.3046875  117774.1171875
 CG ITER, OVMR, OVMRUB =          62   96422.7578125  117774.1171875
 CG ITER, OVMR, OVMRUB =          63   96420.4375000  113588.3828125
 CG ITER, OVMR, OVMRUB =          64   96391.4140625  113588.3828125
 CG ITER, OVMR, OVMRUB =          65   96389.9765625  112998.2890625
 CG ITER, OVMR, OVMRUB =          66   96385.4062500  112998.2890625
 CG ITER, OVMR, OVMRUB =          67   96334.9843750  112998.2890625
 CG ITER, OVMR, OVMRUB =          68   96303.9765625  112998.2890625
 CG ITER, OVMR, OVMRUB =          69   96294.3984375  112998.2890625
 CG ITER, OVMR, OVMRUB =          70   96288.0234375  112998.2890625
 CG ITER, OVMR, OVMRUB =          71   96261.9687500  112998.2890625
 CG ITER, OVMR, OVMRUB =          72   96245.8437500  111382.0781250
 CG ITER, OVMR, OVMRUB =          73   96217.7890625  111382.0781250
 CG ITER, OVMR, OVMRUB =          74   96193.5468750  111382.0781250
 CG ITER, OVMR, OVMRUB =          75   96175.9296875  111382.0781250
 CG ITER, OVMR, OVMRUB =          76   96175.3359375  109377.5625000
 CG ITER, OVMR, OVMRUB =          77   96167.5156250  109377.5625000
 CG ITER, OVMR, OVMRUB =          78   96157.0156250  109377.5625000
 CG ITER, OVMR, OVMRUB =          79   96157.8593750  109377.5625000
 CG ITER, OVMR, OVMRUB =          80   96149.4687500  109377.5625000
 CG ITER, OVMR, OVMRUB =          81   96134.1875000  109377.5625000
 CG ITER, OVMR, OVMRUB =          82   96126.9921875  109377.5625000
 CG ITER, OVMR, OVMRUB =          83   96120.5078125  109377.5625000
 CG ITER, OVMR, OVMRUB =          84   96115.0312500  109377.5625000
 CG ITER, OVMR, OVMRUB =          85   96106.0390625  109377.5625000
 CG ITER, OVMR, OVMRUB =          86   96103.1093750  109377.5625000
 CG ITER, OVMR, OVMRUB =          87   96098.5625000  109377.5625000
 CG ITER, OVMR, OVMRUB =          88   96093.3593750  109377.5625000
 CG ITER, OVMR, OVMRUB =          89   96095.2968750  109377.5625000
 CG ITER, OVMR, OVMRUB =          90   96093.9218750  109377.5625000
 CG ITER, OVMR, OVMRUB =          91   96094.4609375  109377.5625000
 CG ITER, OVMR, OVMRUB =          92   96096.5703125  109377.5625000
 CG ITER, OVMR, OVMRUB =          93   96091.0546875  109377.5625000
 CG ITER, OVMR, OVMRUB =          94   96091.3984375  109377.5625000
 CG ITER, OVMR, OVMRUB =          95   96088.6953125  109377.5625000
 CG ITER, OVMR, OVMRUB =          96   96080.6406250  109294.2187500
 CG ITER, OVMR, OVMRUB =          97   96075.0625000  109294.2187500
 CG ITER, OVMR, OVMRUB =          98   96078.1328125  109294.2187500
 CG ITER, OVMR, OVMRUB =          99   96072.4531250  109294.2187500
 CG ITER, OVMR, OVMRUB =         100   96069.4062500  109294.2187500
 CG ITER, OVMR, OVMRUB =         101   96067.3828125  109294.2187500
 CG ITER, OVMR, OVMRUB =         102   96066.6796875  109294.2187500
 CG ITER, OVMR, OVMRUB =         103   96065.1406250  109294.2187500
 CG ITER, OVMR, OVMRUB =         104   96067.8750000  109294.2187500
 CG ITER, OVMR, OVMRUB =         105   96068.1406250  109294.2187500
 CG ITER, OVMR, OVMRUB =         106   96064.6796875  105646.9062500
 CG ITER, OVMR, OVMRUB =         107   96066.4921875  105646.9062500
 CG ITER, OVMR, OVMRUB =         108   96069.9453125  105646.9062500
 CG ITER, OVMR, OVMRUB =         109   96067.1562500  105646.9062500
 CG ITER, OVMR, OVMRUB =         110   96066.4375000  105646.9062500
 CG ITER, OVMR, OVMRUB =         111   96070.3515625  105646.9062500
 CG ITER, OVMR, OVMRUB =         112   96067.8593750  105646.9062500
 CG ITER, OVMR, OVMRUB =         113   96068.4531250  105646.9062500
 CG ITER, OVMR, OVMRUB =         114   96068.2265625  105646.9062500
 CG ITER, OVMR, OVMRUB =         115   96068.3437500  105646.9062500
 CG ITER, OVMR, OVMRUB =         116   96068.0546875  105646.9062500
 CG ITER, OVMR, OVMRUB =         117   96061.6250000  105646.9062500
 CG ITER, OVMR, OVMRUB =         118   96071.0625000  105646.9062500
 CG ITER, OVMR, OVMRUB =         119   96067.1015625  105646.9062500
 CG ITER, OVMR, OVMRUB =         120   96066.0937500  105646.9062500
 CG ITER, OVMR, OVMRUB =         121   96066.9062500  105646.9062500
 CG ITER, OVMR, OVMRUB =         122   96067.7500000  105646.9062500
 CG ITER, OVMR, OVMRUB =         123   96068.9531250  105646.9062500
 CG ITER, OVMR, OVMRUB =         124   96066.7031250  104679.4453125
 CG ITER, OVMR, OVMRUB =         125   96063.4218750  104679.4453125
 CG ITER, OVMR, OVMRUB =         126   96060.1640625  104679.4453125
 CG ITER, OVMR, OVMRUB =         127   96065.1093750  104679.4453125
 CG ITER, OVMR, OVMRUB =         128   96066.2734375  104679.4453125
 CG ITER, OVMR, OVMRUB =         129   96059.7656250  104496.8203125
 CG ITER, OVMR, OVMRUB =         130   96067.0781250  102871.4765625
 CG ITER, OVMR, OVMRUB =         131   96063.3437500  102871.4765625
 CG ITER, OVMR, OVMRUB =         132   96063.3437500  102871.4765625
OVLB =   96063.3437500 OVLUB =  102871.4765625 TIME =     126.0800018
